73 23 15 20 40 30 20 40 20 20 20 30 30 40 40 40 20 40 200 200 200 200 200 200 200 200
2.00 3.00 3.00 4.00 5.00 5.00 7.00 7.00 10.00 10.00 26.00 24.00 28.00 27.00 30.00 27.00 30.00 32.00 23.00 21.00 23.00 21.00 26.00 25.00 23.00 27.00 25.00 30.00 28.00 48.00 44.00 46.00 43.00 51.00 46.00 51.00 53.00 50.00 39.00 37.00 37.00 35.00 40.00 40.00 39.00 36.00 41.00 37.00 40.00 18.00 45.00 68.00 33.00 45.00 68.00 47.00 50.00 45.00 34.00 8.00 76.00 77.00 73.00 45.00 68.00
5.00 3.00 5.00 5.00 6.00 7.00 7.00 10.00 10.00 25.00 23.00 27.00 26.00 29.00 27.00 30.00 31.00 25.00 23.00 24.00 22.00 28.00 26.00 25.00 28.00 26.00 32.00 29.00 49.00 46.00 47.00 44.00 53.00 47.00 52.00 54.00 51.00 41.00 39.00 39.00 37.00 42.00 42.00 40.00 38.00 43.00 38.00 42.00 20.00 45.00 70.00 35.00 45.00 70.00 47.00 51.00 45.00 36.00 6.00 78.00 79.00 75.00 45.00 70.00
2.00 1.00 3.00 2.00 4.00 5.00 7.00 7.00 25.00 21.00 27.00 26.00 29.00 25.00 28.00 30.00 20.00 18.00 19.00 17.00 23.00 22.00 20.00 23.00 21.00 27.00 24.00 44.00 41.00 42.00 39.00 48.00 42.00 47.00 49.00 46.00 36.00 34.00 35.00 32.00 37.00 37.00 36.00 33.00 38.00 34.00 37.00 16.00 42.00 66.00 31.00 42.00 66.00 43.00 46.00 42.00 32.00 10.00 73.00 74.00 70.00 42.00 66.00
3.00 2.00 2.00 4.00 4.00 7.00 7.00 24.00 21.00 26.00 25.00 27.00 25.00 27.00 29.00 21.00 20.00 21.00 19.00 24.00 23.00 21.00 24.00 23.00 28.00 25.00 45.00 42.00 44.00 41.00 49.00 43.00 48.00 50.00 47.00 38.00 36.00 37.00 34.00 39.00 39.00 37.00 35.00 40.00 35.00 39.00 18.00 42.00 68.00 33.00 42.00 68.00 44.00 47.00 42.00 34.00 8.00 75.00 76.00 72.00 42.00 68.00
4.00 2.00 5.00 6.00 7.00 8.00 26.00 22.00 28.00 26.00 29.00 26.00 28.00 30.00 19.00 17.00 19.00 17.00 22.00 21.00 19.00 23.00 21.00 26.00 24.00 43.00 40.00 42.00 39.00 47.00 42.00 47.00 48.00 46.00 35.00 33.00 34.00 31.00 36.00 37.00 35.00 32.00 37.00 33.00 36.00 15.00 42.00 65.00 30.00 42.00 65.00 43.00 46.00 43.00 31.00 11.00 72.00 73.00 69.00 42.00 65.00
3.00 2.00 2.00 5.00 5.00 21.00 18.00 24.00 22.00 25.00 22.00 25.00 27.00 21.00 19.00 20.00 18.00 24.00 22.00 20.00 24.00 22.00 27.00 24.00 45.00 41.00 43.00 40.00 48.00 42.00 47.00 49.00 46.00 39.00 37.00 37.00 34.00 39.00 40.00 38.00 35.00 40.00 36.00 39.00 19.00 40.00 69.00 34.00 40.00 69.00 42.00 46.00 40.00 35.00 8.00 75.00 76.00 72.00 40.00 69.00
2.00 4.00 5.00 5.00 24.00 20.00 26.00 24.00 27.00 23.00 26.00 28.00 18.00 17.00 18.00 16.00 21.00 20.00 18.00 22.00 20.00 25.00 22.00 43.00 39.00 41.00 38.00 46.00 40.00 46.00 47.00 45.00 36.00 34.00 34.00 31.00 36.00 37.00 35.00 32.00 37.00 33.00 36.00 16.00 40.00 66.00 31.00 40.00 66.00 41.00 44.00 41.00 32.00 11.00 72.00 73.00 69.00 40.00 66.00
2.00 3.00 3.00 21.00 17.00 23.00 21.00 24.00 21.00 24.00 25.00 19.00 17.00 18.00 16.00 22.00 20.00 18.00 21.00 19.00 25.00 22.00 43.00 39.00 41.00 37.00 46.00 40.00 45.00 47.00 44.00 38.00 36.00 36.00 33.00 38.00 38.00 36.00 33.00 39.00 34.00 37.00 18.00 38.00 68.00 33.00 38.00 68.00 40.00 43.00 38.00 34.00 10.00 73.00 74.00 70.00 38.00 68.00
5.00 3.00 19.00 16.00 21.00 20.00 23.00 20.00 23.00 25.00 21.00 19.00 20.00 18.00 23.00 22.00 19.00 23.00 21.00 26.00 23.00 44.00 41.00 42.00 39.00 48.00 41.00 46.00 48.00 45.00 40.00 38.00 38.00 35.00 40.00 40.00 38.00 35.00 41.00 36.00 39.00 20.00 38.00 70.00 35.00 39.00 70.00 41.00 44.00 38.00 36.00 9.00 75.00 76.00 72.00 38.00 70.00
3.00 21.00 15.00 23.00 20.00 24.00 19.00 21.00 24.00 16.00 14.00 15.00 13.00 18.00 17.00 14.00 18.00 16.00 21.00 18.00 39.00 36.00 37.00 34.00 43.00 36.00 42.00 43.00 40.00 36.00 34.00 34.00 31.00 36.00 36.00 34.00 31.00 36.00 31.00 35.00 16.00 35.00 66.00 32.00 35.00 66.00 37.00 40.00 36.00 33.00 14.00 70.00 71.00 68.00 35.00 66.00
18.00 14.00 20.00 18.00 21.00 18.00 20.00 22.00 19.00 17.00 18.00 15.00 21.00 19.00 17.00 20.00 18.00 24.00 20.00 42.00 38.00 39.00 36.00 45.00 38.00 43.00 45.00 42.00 39.00 37.00 37.00 34.00 39.00 39.00 37.00 34.00 39.00 34.00 38.00 19.00 35.00 69.00 35.00 35.00 69.00 38.00 41.00 35.00 36.00 12.00 73.00 74.00 71.00 35.00 69.00
10.00 3.00 7.00 5.00 12.00 14.00 11.00 35.00 33.00 33.00 30.00 35.00 33.00 30.00 33.00 30.00 35.00 30.00 52.00 47.00 48.00 43.00 53.00 44.00 50.00 51.00 47.00 55.00 53.00 53.00 50.00 55.00 55.00 53.00 50.00 55.00 50.00 53.00 38.00 33.00 86.00 53.00 34.00 85.00 39.00 46.00 26.00 54.00 21.00 86.00 86.00 85.00 31.00 85.00
10.00 5.00 10.00 4.00 7.00 8.00 26.00 24.00 23.00 20.00 25.00 23.00 20.00 23.00 20.00 25.00 20.00 41.00 37.00 37.00 33.00 43.00 34.00 40.00 41.00 37.00 46.00 44.00 44.00 41.00 46.00 45.00 43.00 40.00 45.00 40.00 43.00 30.00 25.00 77.00 46.00 26.00 76.00 30.00 36.00 22.00 47.00 23.00 75.00 76.00 75.00 23.00 76.00
5.00 2.00 10.00 12.00 8.00 35.00 33.00 33.00 30.00 35.00 33.00 30.00 33.00 30.00 35.00 30.00 51.00 46.00 47.00 42.00 52.00 43.00 49.00 50.00 45.00 56.00 54.00 54.00 51.00 55.00 55.00 53.00 50.00 55.00 50.00 53.00 39.00 31.00 86.00 55.00 32.00 86.00 38.00 44.00 24.00 55.00 24.00 85.00 86.00 85.00 29.00 86.00
5.00 5.00 7.00 5.00 31.00 29.00 29.00 26.00 30.00 28.00 25.00 28.00 25.00 30.00 25.00 46.00 41.00 41.00 37.00 47.00 38.00 43.00 44.00 40.00 52.00 50.00 49.00 46.00 51.00 50.00 49.00 46.00 50.00 45.00 48.00 36.00 26.00 82.00 51.00 27.00 81.00 32.00 39.00 20.00 52.00 25.00 80.00 81.00 80.00 24.00 81.00
10.00 11.00 7.00 36.00 34.00 33.00 31.00 35.00 33.00 30.00 33.00 30.00 35.00 30.00 50.00 46.00 46.00 41.00 52.00 42.00 48.00 49.00 44.00 57.00 55.00 54.00 51.00 56.00 55.00 53.00 50.00 55.00 50.00 53.00 40.00 30.00 87.00 55.00 31.00 86.00 36.00 43.00 22.00 56.00 26.00 85.00 85.00 85.00 27.00 86.00
3.00 5.00 27.00 25.00 25.00 22.00 25.00 24.00 21.00 23.00 20.00 25.00 20.00 40.00 35.00 36.00 31.00 42.00 32.00 38.00 39.00 34.00 48.00 46.00 45.00 42.00 47.00 46.00 44.00 41.00 46.00 41.00 43.00 33.00 22.00 78.00 48.00 22.00 77.00 27.00 34.00 18.00 49.00 27.00 75.00 75.00 75.00 20.00 77.00
5.00 29.00 27.00 26.00 23.00 26.00 25.00 22.00 24.00 21.00 25.00 20.00 40.00 35.00 35.00 30.00 41.00 31.00 37.00 38.00 33.00 49.00 47.00 46.00 43.00 48.00 47.00 45.00 42.00 46.00 42.00 44.00 35.00 19.00 79.00 50.00 20.00 78.00 25.00 32.00 15.00 50.00 30.00 75.00 75.00 75.00 17.00 78.00
33.00 31.00 30.00 28.00 31.00 29.00 26.00 29.00 26.00 30.00 25.00 45.00 40.00 40.00 35.00 46.00 36.00 42.00 42.00 38.00 53.00 52.00 51.00 48.00 52.00 52.00 50.00 47.00 51.00 46.00 49.00 39.00 23.00 83.00 54.00 24.00 82.00 30.00 37.00 15.00 54.00 30.00 80.00 80.00 80.00 20.00 82.00
2.00 2.00 5.00 5.00 5.00 7.00 7.00 8.00 10.00 11.00 25.00 22.00 24.00 22.00 29.00 25.00 29.00 31.00 30.00 20.00 18.00 18.00 15.00 20.00 20.00 18.00 15.00 20.00 15.00 18.00 10.00 32.00 50.00 21.00 31.00 50.00 30.00 30.00 39.00 21.00 30.00 53.00 55.00 51.00 34.00 50.00
2.00 3.00 5.00 5.00 5.00 7.00 7.00 10.00 10.00 26.00 23.00 25.00 23.00 30.00 25.00 30.00 32.00 30.00 22.00 20.00 20.00 17.00 22.00 22.00 20.00 17.00 22.00 17.00 20.00 10.00 31.00 52.00 22.00 31.00 52.00 30.00 30.00 37.00 23.00 28.00 55.00 56.00 53.00 33.00 52.00
3.00 3.00 3.00 4.00 5.00 5.00 8.00 8.00 24.00 21.00 23.00 21.00 28.00 24.00 28.00 30.00 28.00 23.00 21.00 20.00 17.00 22.00 22.00 20.00 17.00 22.00 17.00 20.00 12.00 29.00 53.00 24.00 29.00 52.00 28.00 28.00 36.00 24.00 29.00 55.00 56.00 52.00 31.00 52.00
5.00 4.00 3.00 5.00 5.00 9.00 8.00 26.00 23.00 25.00 22.00 30.00 25.00 30.00 31.00 29.00 25.00 24.00 23.00 20.00 25.00 25.00 23.00 20.00 25.00 20.00 23.00 13.00 28.00 56.00 26.00 28.00 55.00 28.00 29.00 34.00 27.00 27.00 57.00 58.00 55.00 30.00 55.00
2.00 5.00 2.00 5.00 5.00 7.00 21.00 18.00 19.00 17.00 25.00 20.00 25.00 26.00 25.00 22.00 20.00 19.00 17.00 21.00 20.00 18.00 15.00 20.00 15.00 18.00 15.00 27.00 52.00 25.00 27.00 51.00 25.00 25.00 35.00 25.00 32.00 52.00 53.00 50.00 29.00 51.00
3.00 2.00 3.00 5.00 5.00 22.00 19.00 20.00 18.00 26.00 21.00 25.00 27.00 25.00 24.00 22.00 21.00 18.00 23.00 22.00 20.00 17.00 22.00 17.00 20.00 15.00 26.00 54.00 26.00 26.00 53.00 25.00 25.00 33.00 26.00 31.00 54.00 55.00 52.00 28.00 53.00
3.00 2.00 7.00 5.00 25.00 21.00 22.00 19.00 28.00 22.00 27.00 29.00 26.00 26.00 25.00 24.00 21.00 25.00 25.00 23.00 20.00 25.00 20.00 23.00 15.00 25.00 57.00 28.00 25.00 56.00 25.00 26.00 32.00 29.00 29.00 57.00 57.00 55.00 27.00 56.00
3.00 3.00 4.00 21.00 17.00 19.00 16.00 24.00 19.00 24.00 25.00 24.00 25.00 23.00 22.00 19.00 23.00 23.00 21.00 18.00 22.00 17.00 20.00 17.00 25.00 54.00 27.00 24.00 53.00 23.00 23.00 32.00 28.00 32.00 53.00 54.00 52.00 26.00 53.00
5.00 3.00 23.00 19.00 21.00 18.00 26.00 20.00 25.00 27.00 25.00 27.00 25.00 25.00 22.00 26.00 25.00 24.00 21.00 25.00 20.00 23.00 17.00 24.00 57.00 29.00 23.00 56.00 23.00 24.00 30.00 30.00 30.00 56.00 57.00 55.00 25.00 56.00
5.00 18.00 14.00 15.00 13.00 21.00 15.00 20.00 22.00 20.00 25.00 23.00 22.00 19.00 23.00 22.00 20.00 18.00 21.00 17.00 18.00 20.00 23.00 53.00 29.00 22.00 52.00 20.00 20.00 32.00 29.00 36.00 50.00 51.00 50.00 25.00 52.00
22.00 18.00 19.00 15.00 25.00 18.00 23.00 25.00 22.00 29.00 27.00 26.00 23.00 27.00 26.00 25.00 22.00 26.00 21.00 23.00 20.00 21.00 58.00 32.00 20.00 57.00 20.00 21.00 28.00 32.00 32.00 55.00 56.00 55.00 22.00 57.00
5.00 5.00 10.00 5.00 11.00 9.00 11.00 14.00 25.00 25.00 23.00 23.00 22.00 20.00 20.00 20.00 18.00 18.00 16.00 33.00 28.00 46.00 35.00 27.00 44.00 21.00 14.00 41.00 35.00 53.00 35.00 35.00 35.00 32.00 44.00
2.00 5.00 7.00 7.00 8.00 10.00 11.00 26.00 26.00 24.00 23.00 24.00 22.00 21.00 20.00 20.00 18.00 17.00 31.00 24.00 50.00 35.00 23.00 48.00 17.00 11.00 36.00 35.00 50.00 40.00 40.00 40.00 27.00 48.00
5.00 5.00 5.00 6.00 8.00 9.00 28.00 28.00 26.00 25.00 26.00 24.00 23.00 22.00 22.00 20.00 19.00 33.00 23.00 51.00 37.00 22.00 49.00 16.00 10.00 35.00 37.00 51.00 40.00 40.00 41.00 27.00 49.00
10.00 3.00 7.00 9.00 8.00 30.00 29.00 28.00 26.00 28.00 26.00 25.00 24.00 25.00 22.00 22.00 32.00 18.00 55.00 38.00 17.00 53.00 12.00 8.00 31.00 38.00 48.00 45.00 45.00 46.00 22.00 53.00
10.00 5.00 7.00 11.00 30.00 30.00 28.00 28.00 27.00 25.00 25.00 25.00 23.00 23.00 21.00 38.00 27.00 49.00 40.00 26.00 47.00 19.00 12.00 40.00 40.00 57.00 35.00 35.00 37.00 31.00 47.00
5.00 7.00 5.00 33.00 32.00 30.00 29.00 30.00 29.00 28.00 26.00 27.00 25.00 24.00 35.00 17.00 57.00 41.00 16.00 55.00 10.00 5.00 30.00 41.00 50.00 45.00 45.00 46.00 21.00 55.00
2.00 5.00 34.00 33.00 32.00 31.00 31.00 29.00 29.00 28.00 27.00 26.00 25.00 39.00 22.00 55.00 43.00 21.00 53.00 14.00 6.00 35.00 43.00 56.00 40.00 40.00 43.00 26.00 53.00
5.00 36.00 35.00 33.00 33.00 33.00 31.00 31.00 30.00 29.00 28.00 27.00 41.00 22.00 56.00 45.00 21.00 54.00 14.00 6.00 35.00 45.00 57.00 41.00 40.00 43.00 26.00 54.00
38.00 37.00 35.00 34.00 35.00 33.00 32.00 31.00 31.00 29.00 29.00 40.00 17.00 60.00 46.00 16.00 58.00 9.00 1.00 30.00 46.00 54.00 46.00 45.00 48.00 21.00 58.00
2.00 2.00 5.00 3.00 5.00 5.00 7.00 7.00 8.00 9.00 20.00 47.00 30.00 11.00 46.00 30.00 42.00 38.00 57.00 10.00 47.00 39.00 41.00 34.00 50.00 30.00
2.00 3.00 3.00 5.00 5.00 5.00 7.00 7.00 9.00 18.00 46.00 32.00 10.00 45.00 32.00 41.00 37.00 55.00 10.00 45.00 40.00 42.00 36.00 48.00 32.00
3.00 2.00 3.00 3.00 4.00 5.00 5.00 7.00 19.00 44.00 32.00 12.00 43.00 32.00 39.00 35.00 54.00 12.00 45.00 39.00 41.00 35.00 47.00 32.00
5.00 5.00 4.00 3.00 7.00 5.00 7.00 16.00 42.00 35.00 12.00 42.00 35.00 38.00 34.00 51.00 12.00 42.00 41.00 43.00 38.00 45.00 35.00
2.00 2.00 5.00 4.00 6.00 6.00 21.00 45.00 31.00 13.00 44.00 30.00 40.00 35.00 55.00 13.00 47.00 37.00 39.00 33.00 48.00 30.00
2.00 5.00 2.00 5.00 4.00 22.00 43.00 31.00 15.00 43.00 30.00 38.00 34.00 54.00 15.00 48.00 36.00 37.00 32.00 46.00 30.00
3.00 2.00 3.00 4.00 20.00 42.00 33.00 15.00 41.00 32.00 37.00 33.00 52.00 15.00 46.00 37.00 39.00 34.00 45.00 32.00
5.00 2.00 5.00 18.00 40.00 36.00 15.00 39.00 35.00 35.00 31.00 50.00 15.00 43.00 40.00 41.00 37.00 43.00 35.00
5.00 2.00 23.00 42.00 32.00 17.00 41.00 31.00 36.00 32.00 53.00 17.00 49.00 34.00 36.00 31.00 45.00 31.00
3.00 19.00 38.00 37.00 17.00 38.00 36.00 33.00 30.00 48.00 17.00 44.00 39.00 40.00 36.00 41.00 36.00
22.00 39.00 34.00 19.00 38.00 33.00 34.00 29.00 50.00 19.00 47.00 35.00 37.00 32.00 42.00 33.00
46 172
471 581
829 965
548 692
912 1064
653 771
743 867
991 1127
917 1081
746 878
834 976
149 255
986 1115
231 359
722 812
329 445
594 750
534 624
426 542
10 130
11 135
43 161
13 127
38 172
121 269
637 779
240 334
402 546
148 252
328 434
441 543
237 371
314 478
170 268
620 760
244 380
544 644
441 563
342 472
114 228
19 139
213 315
759 879
294 418
394 502
569 697
670 782
483 597
980 1104
897 1001
0 1236
0 1236
0 1236
0 1236
0 1236
0 1236
0 1236
0 1236
0 1236
0 1236
0 1236
0 1236
0 1236
0 1236
0 1236
0 1236
0 1236
0 1236
0 1236
0 1236
0 1236
0 1236
0 1236
41.00 50.00 15.00 41.00 50.00 40.00 40.00 47.00 16.00 26.00 58.00 59.00 54.00 43.00 50.00 0 0 0 0 0 0 0 0
10 30 10 10 10 20 20 20 10 10 10 20 30 10 40 40 20 20 10 10 20 20 10 10 40 10 10 20 10 10 20 30 40 20 10 10 20 30 20 10 10 20 10 10 10 30 10 10 10 10